100
128
5
1
8
8
8
3
10
7
8
11
15
8
12
25
39
2
19
28
23
5
10
35
7
3
7
4
41
15
15
12
14
15
2
11
13
60
40
32
17
46
31
51
63
63
39
38
58
61
40
32
53
19
56
2
51
4
44
48
48
63
61
31
47
27
26
36
52
40
40
36
5
47
63
16
48
46
25
55
29
28
25
46
26
56
40
54
49
43
64
64
46
23
59
48
36
63
64
44
36
34